<number of tasks>
70

<cycle time>
410

<task times>
1 17
2 66
3 54
4 52
5 6
6 88
7 21
8 128
9 68
10 70
11 85
12 21
13 134
14 135
15 94
16 90
17 50
18 143
19 19
20 54
21 50
22 40
23 73
24 12
25 152
26 42
27 45
28 74
29 26
30 11
31 31
32 50
33 102
34 46
35 35
36 40
37 2
38 1
39 3
40 13
41 16
42 25
43 21
44 43
45 30
46 83
47 89
48 56
49 59
50 43
51 11
52 26
53 44
54 121
55 38
56 68
57 22
58 7
59 16
60 32
61 25
62 27
63 156
64 28
65 15
66 26
67 18
68 72
69 23
70 27

<precedence relations>
1,2
1,41
1,69
1,70
2,3
3,4
3,68
4,6
4,7
5,6
5,24
5,30
6,8
7,8
8,12
9,10
10,11
11,12
12,13
12,14
13,23
14,23
15,16
16,17
16,18
17,19
18,19
19,20
19,22
19,57
20,21
21,23
22,23
23,25
23,31
23,33
24,25
25,26
25,27
25,28
25,29
26,35
27,35
28,35
29,35
30,31
31,32
32,35
33,34
34,35
35,36
35,44
35,48
35,51
35,53
35,56
35,60
35,61
35,62
36,37
37,38
38,39
39,40
40,42
41,42
42,43
43,50
44,45
45,46
46,47
47,50
48,49
49,50
51,52
52,54
53,54
54,55
57,58
58,59
59,60
61,65
62,63
63,64
64,65
64,66
64,67

<setup times forward>
1,10:15
1,11:5
1,16:15
1,17:5
1,18:5
1,19:5
1,20:5
1,21:5
1,22:5
1,41:15
1,57:5
1,58:5
1,59:5
1,69:13
1,70:5
2,10:15
2,11:5
2,16:15
2,17:5
2,18:5
2,19:5
2,20:5
2,21:5
2,22:5
2,41:15
2,57:5
2,58:5
2,59:5
2,69:13
2,70:5
3,10:15
3,11:5
3,16:15
3,17:5
3,18:5
3,19:5
3,20:5
3,21:5
3,22:5
3,41:15
3,57:5
3,58:5
3,59:5
3,69:13
3,70:5
4,6:15
4,10:15
4,11:5
4,16:15
4,17:5
4,18:5
4,19:5
4,20:5
4,21:5
4,22:5
4,41:15
4,57:5
4,58:5
4,59:5
4,69:13
4,70:5
5,6:15
5,10:15
5,11:5
5,16:15
5,17:5
5,18:5
5,19:5
5,20:5
5,21:5
5,22:5
5,41:15
5,57:5
5,58:5
5,59:5
5,69:13
5,70:5
6,7:15
6,9:15
6,11:20
6,15:15
6,17:20
6,18:20
6,19:20
6,20:20
6,21:10
6,22:10
6,24:15
6,30:15
6,57:20
6,58:20
6,59:10
6,68:15
6,69:28
6,70:10
7,6:15
7,8:15
7,10:15
7,11:5
7,16:15
7,17:5
7,18:5
7,19:5
7,20:5
7,21:5
7,22:5
7,41:15
7,57:5
7,58:5
7,59:5
7,69:13
7,70:5
8,9:15
8,11:20
8,12:20
8,15:15
8,17:20
8,18:20
8,19:20
8,20:20
8,21:10
8,22:10
8,24:15
8,30:15
8,57:20
8,58:20
8,59:10
8,68:15
8,69:28
8,70:10
9,6:15
9,8:15
9,10:15
9,16:15
9,17:5
9,18:5
9,19:5
9,20:5
9,21:5
9,22:5
9,41:15
9,57:5
9,58:5
9,59:5
9,69:13
9,70:5
10,1:15
10,2:15
10,3:15
10,4:15
10,5:15
10,7:15
10,11:20
10,15:15
10,17:20
10,18:20
10,19:20
10,20:20
10,21:10
10,22:10
10,24:15
10,30:15
10,57:20
10,58:20
10,59:10
10,68:15
10,69:28
10,70:10
11,1:5
11,2:5
11,3:5
11,4:5
11,5:5
11,6:20
11,7:5
11,8:20
11,15:5
11,16:20
11,21:10
11,22:10
11,24:5
11,30:5
11,41:20
11,59:10
11,68:5
11,69:8
11,70:10
12,13:10
12,14:10
12,15:5
12,16:20
12,21:10
12,22:10
12,24:5
12,30:5
12,41:20
12,59:10
12,68:5
12,69:8
12,70:10
13,15:5
13,16:10
13,17:10
13,18:10
13,19:10
13,20:10
13,23:1
13,24:5
13,30:5
13,41:10
13,57:10
13,58:10
13,68:5
13,69:18
14,15:5
14,16:10
14,17:10
14,18:10
14,19:10
14,20:10
14,23:1
14,24:5
14,30:5
14,41:10
14,57:10
14,58:10
14,68:5
14,69:18
15,6:15
15,8:15
15,10:15
15,11:5
15,12:5
15,13:5
15,14:5
15,16:15
15,41:15
15,69:13
15,70:5
16,1:15
16,2:15
16,3:15
16,4:15
16,5:15
16,7:15
16,9:15
16,11:20
16,12:20
16,13:10
16,14:10
16,17:20
16,18:20
16,24:15
16,30:15
16,68:15
16,69:28
16,70:10
17,1:5
17,2:5
17,3:5
17,4:5
17,5:5
17,6:20
17,7:5
17,8:20
17,9:5
17,10:20
17,13:10
17,14:10
17,24:5
17,30:5
17,41:20
17,68:5
17,69:8
17,70:10
18,1:5
18,2:5
18,3:5
18,4:5
18,5:5
18,6:20
18,7:5
18,8:20
18,9:5
18,10:20
18,13:10
18,14:10
18,24:5
18,30:5
18,41:20
18,68:5
18,69:8
18,70:10
19,1:5
19,2:5
19,3:5
19,4:5
19,5:5
19,6:20
19,7:5
19,8:20
19,9:5
19,10:20
19,13:10
19,14:10
19,22:10
19,24:5
19,30:5
19,41:20
19,68:5
19,69:8
19,70:10
20,1:5
20,2:5
20,3:5
20,4:5
20,5:5
20,6:20
20,7:5
20,8:20
20,9:5
20,10:20
20,13:10
20,14:10
20,21:10
20,22:10
20,24:5
20,30:5
20,41:20
20,59:10
20,68:5
20,69:8
20,70:10
21,1:5
21,2:5
21,3:5
21,4:5
21,5:5
21,6:10
21,7:5
21,8:10
21,9:5
21,10:10
21,11:10
21,12:10
21,23:1
21,24:5
21,30:5
21,41:10
21,57:10
21,58:10
21,68:5
21,69:18
22,1:5
22,2:5
22,3:5
22,4:5
22,5:5
22,6:10
22,7:5
22,8:10
22,9:5
22,10:10
22,11:10
22,12:10
22,20:10
22,23:1
22,24:5
22,30:5
22,41:10
22,57:10
22,58:10
22,68:5
22,69:18
23,24:4
23,30:4
23,41:11
23,57:9
23,58:9
23,59:1
23,68:4
23,69:17
23,70:1
24,6:15
24,8:15
24,10:15
24,11:5
24,12:5
24,13:5
24,14:5
24,16:15
24,17:5
24,18:5
24,19:5
24,20:5
24,21:5
24,22:5
24,23:4
24,25:4
24,31:4
24,32:4
24,33:4
24,34:8
24,41:15
24,57:5
24,58:5
24,59:5
24,69:13
24,70:5
25,26:12
25,27:12
25,28:12
25,29:12
25,30:4
25,34:12
25,41:11
25,57:9
25,58:9
25,59:1
25,68:4
25,69:17
25,70:1
26,30:8
26,31:12
26,32:12
26,33:12
26,41:23
26,57:3
26,58:3
26,59:13
26,68:8
26,69:5
26,70:13
27,30:8
27,31:12
27,32:12
27,33:12
27,41:23
27,57:3
27,58:3
27,59:13
27,68:8
27,69:5
27,70:13
28,30:8
28,31:12
28,32:12
28,33:12
28,41:23
28,57:3
28,58:3
28,59:13
28,68:8
28,69:5
28,70:13
29,30:8
29,31:12
29,32:12
29,33:12
29,41:23
29,57:3
29,58:3
29,59:13
29,68:8
29,69:5
29,70:13
30,6:15
30,8:15
30,10:15
30,11:5
30,12:5
30,13:5
30,14:5
30,16:15
30,17:5
30,18:5
30,19:5
30,20:5
30,21:5
30,22:5
30,23:4
30,25:4
30,26:8
30,27:8
30,28:8
30,29:8
30,31:4
30,33:4
30,34:8
30,41:15
30,57:5
30,58:5
30,59:5
30,69:13
30,70:5
31,24:4
31,26:12
31,27:12
31,28:12
31,29:12
31,34:12
31,41:11
31,57:9
31,58:9
31,59:1
31,68:4
31,69:17
31,70:1
32,24:4
32,26:12
32,27:12
32,28:12
32,29:12
32,34:12
32,35:12
32,41:11
32,57:9
32,58:9
32,59:1
32,68:4
32,69:17
32,70:1
33,24:4
33,26:12
33,27:12
33,28:12
33,29:12
33,30:4
33,34:12
33,41:11
33,57:9
33,58:9
33,59:1
33,68:4
33,69:17
33,70:1
34,24:8
34,25:12
34,30:8
34,31:12
34,32:12
34,41:23
34,57:3
34,58:3
34,59:13
34,68:8
34,69:5
34,70:13
35,36:8
35,41:23
35,48:8
35,53:5
35,56:5
35,57:3
35,58:3
35,59:13
35,60:5
35,61:5
35,68:8
35,69:5
35,70:13
36,41:15
36,44:8
36,45:8
36,47:8
36,49:13
36,51:8
36,52:8
36,53:13
36,54:8
36,55:8
36,56:13
36,57:5
36,58:5
36,59:5
36,60:13
36,61:13
36,62:8
36,64:8
36,65:8
36,66:8
36,67:8
36,69:13
36,70:5
37,41:15
37,44:8
37,45:8
37,47:8
37,49:13
37,51:8
37,52:8
37,53:13
37,54:8
37,55:8
37,56:13
37,57:5
37,58:5
37,59:5
37,60:13
37,61:13
37,62:8
37,64:8
37,65:8
37,66:8
37,67:8
37,69:13
37,70:5
38,39:13
38,41:15
38,44:8
38,45:8
38,47:8
38,49:13
38,51:8
38,52:8
38,53:13
38,54:8
38,55:8
38,56:13
38,57:5
38,58:5
38,59:5
38,60:13
38,61:13
38,62:8
38,64:8
38,65:8
38,66:8
38,67:8
38,69:13
38,70:5
39,41:28
39,44:5
39,45:5
39,46:13
39,47:21
39,48:13
39,51:5
39,52:5
39,54:21
39,55:21
39,57:8
39,58:8
39,59:18
39,62:5
39,63:13
39,64:21
39,65:21
39,66:21
39,67:21
39,68:13
39,70:18
40,41:28
40,44:5
40,45:5
40,46:13
40,47:21
40,48:13
40,51:5
40,52:5
40,54:21
40,55:21
40,57:8
40,58:8
40,59:18
40,62:5
40,63:13
40,64:21
40,65:21
40,66:21
40,67:21
40,68:13
40,70:18
41,2:15
41,3:15
41,4:15
41,5:15
41,7:15
41,9:15
41,11:20
41,12:20
41,13:10
41,14:10
41,15:15
41,17:20
41,18:20
41,19:20
41,20:20
41,21:10
41,22:10
41,23:11
41,24:15
41,25:11
41,26:23
41,27:23
41,28:23
41,29:23
41,30:15
41,31:11
41,32:11
41,33:11
41,34:23
41,35:23
41,36:15
41,37:15
41,38:15
41,39:28
41,40:28
41,42:28
41,44:23
41,45:23
41,46:15
41,47:7
41,48:15
41,49:28
41,51:23
41,52:23
41,53:28
41,54:7
41,55:7
41,56:28
41,57:20
41,58:20
41,59:10
41,60:28
41,61:28
41,62:23
41,63:15
41,64:7
41,65:7
41,66:7
41,67:7
41,68:15
41,69:28
41,70:10
42,43:21
42,44:5
42,45:5
42,46:13
42,47:21
42,48:13
42,51:5
42,52:5
42,54:21
42,55:21
42,57:8
42,58:8
42,59:18
42,62:5
42,63:13
42,64:21
42,65:21
42,66:21
42,67:21
42,68:13
42,70:18
43,44:16
43,45:16
43,46:8
43,48:8
43,49:21
43,51:16
43,52:16
43,53:21
43,56:21
43,57:13
43,58:13
43,59:3
43,60:21
43,61:21
43,62:16
43,63:8
43,68:8
43,69:21
43,70:3
44,36:8
44,37:8
44,38:8
44,39:5
44,40:5
44,41:23
44,42:5
44,43:16
44,48:8
44,49:5
44,53:5
44,54:16
44,55:16
44,56:5
44,57:3
44,58:3
44,59:13
44,60:5
44,61:5
44,63:8
44,64:16
44,65:16
44,66:16
44,67:16
44,68:8
44,69:5
44,70:13
45,36:8
45,37:8
45,38:8
45,39:5
45,40:5
45,41:23
45,42:5
45,43:16
45,46:8
45,48:8
45,49:5
45,53:5
45,54:16
45,55:16
45,56:5
45,57:3
45,58:3
45,59:13
45,60:5
45,61:5
45,63:8
45,64:16
45,65:16
45,66:16
45,67:16
45,68:8
45,69:5
45,70:13
46,39:13
46,40:13
46,41:15
46,42:13
46,43:8
46,47:8
46,49:13
46,51:8
46,52:8
46,53:13
46,54:8
46,55:8
46,56:13
46,57:5
46,58:5
46,59:5
46,60:13
46,61:13
46,62:8
46,64:8
46,65:8
46,66:8
46,67:8
46,69:13
46,70:5
47,36:8
47,37:8
47,38:8
47,39:21
47,40:21
47,41:7
47,42:21
47,48:8
47,49:21
47,51:16
47,52:16
47,53:21
47,56:21
47,57:13
47,58:13
47,59:3
47,60:21
47,61:21
47,62:16
47,63:8
47,68:8
47,69:21
47,70:3
48,39:13
48,40:13
48,41:15
48,42:13
48,43:8
48,44:8
48,45:8
48,47:8
48,49:13
48,51:8
48,52:8
48,53:13
48,54:8
48,55:8
48,56:13
48,57:5
48,58:5
48,59:5
48,60:13
48,61:13
48,62:8
48,64:8
48,65:8
48,66:8
48,67:8
48,69:13
48,70:5
49,36:13
49,37:13
49,38:13
49,41:28
49,43:21
49,44:5
49,45:5
49,46:13
49,47:21
49,50:21
49,51:5
49,52:5
49,54:21
49,55:21
49,57:8
49,58:8
49,59:18
49,62:5
49,63:13
49,64:21
49,65:21
49,66:21
49,67:21
49,68:13
49,70:18
50,51:16
50,52:16
50,53:21
50,56:21
50,57:13
50,58:13
50,59:3
50,60:21
50,61:21
50,62:16
50,63:8
50,68:8
50,69:21
50,70:3
51,36:8
51,37:8
51,38:8
51,39:5
51,40:5
51,41:23
51,42:5
51,43:16
51,46:8
51,47:16
51,48:8
51,49:5
51,50:16
51,53:5
51,56:5
51,57:3
51,58:3
51,59:13
51,60:5
51,61:5
51,63:8
51,64:16
51,65:16
51,66:16
51,67:16
51,68:8
51,69:5
51,70:13
52,36:8
52,37:8
52,38:8
52,39:5
52,40:5
52,41:23
52,42:5
52,43:16
52,46:8
52,47:16
52,48:8
52,49:5
52,50:16
52,53:5
52,54:16
52,56:5
52,57:3
52,58:3
52,59:13
52,60:5
52,61:5
52,63:8
52,64:16
52,65:16
52,66:16
52,67:16
52,68:8
52,69:5
52,70:13
53,36:13
53,37:13
53,38:13
53,41:28
53,43:21
53,44:5
53,45:5
53,46:13
53,47:21
53,48:13
53,50:21
53,51:5
53,52:5
53,54:21
53,57:8
53,58:8
53,59:18
53,62:5
53,63:13
53,64:21
53,65:21
53,66:21
53,67:21
53,68:13
53,70:18
54,36:8
54,37:8
54,38:8
54,39:21
54,40:21
54,41:7
54,42:21
54,44:16
54,45:16
54,46:8
54,48:8
54,49:21
54,56:21
54,57:13
54,58:13
54,59:3
54,60:21
54,61:21
54,62:16
54,63:8
54,68:8
54,69:21
54,70:3
55,36:8
55,37:8
55,38:8
55,39:21
55,40:21
55,41:7
55,42:21
55,44:16
55,45:16
55,46:8
55,48:8
55,49:21
55,56:21
55,57:13
55,58:13
55,59:3
55,60:21
55,61:21
55,62:16
55,63:8
55,68:8
55,69:21
55,70:3
56,36:13
56,37:13
56,38:13
56,41:28
56,43:21
56,44:5
56,45:5
56,46:13
56,47:21
56,48:13
56,50:21
56,51:5
56,52:5
56,54:21
56,55:21
56,57:8
56,58:8
56,59:18
56,62:5
56,63:13
56,64:21
56,65:21
56,66:21
56,67:21
56,68:13
56,70:18
57,1:5
57,2:5
57,3:5
57,4:5
57,5:5
57,6:20
57,7:5
57,8:20
57,9:5
57,10:20
57,13:10
57,14:10
57,21:10
57,22:10
57,23:9
57,24:5
57,25:9
57,26:3
57,27:3
57,28:3
57,29:3
57,30:5
57,31:9
57,32:9
57,33:9
57,34:3
57,35:3
57,36:5
57,37:5
57,38:5
57,39:8
57,40:8
57,41:20
57,42:8
57,43:13
57,44:3
57,45:3
57,46:5
57,47:13
57,48:5
57,49:8
57,50:13
57,51:3
57,52:3
57,53:8
57,54:13
57,55:13
57,56:8
57,61:8
57,62:3
57,63:5
57,64:13
57,65:13
57,66:13
57,67:13
57,68:5
57,69:8
57,70:10
58,1:5
58,2:5
58,3:5
58,4:5
58,5:5
58,6:20
58,7:5
58,8:20
58,9:5
58,10:20
58,13:10
58,14:10
58,21:10
58,22:10
58,23:9
58,24:5
58,25:9
58,26:3
58,27:3
58,28:3
58,29:3
58,30:5
58,31:9
58,32:9
58,33:9
58,34:3
58,35:3
58,36:5
58,37:5
58,38:5
58,39:8
58,40:8
58,41:20
58,42:8
58,43:13
58,44:3
58,45:3
58,46:5
58,47:13
58,48:5
58,49:8
58,50:13
58,51:3
58,52:3
58,53:8
58,54:13
58,55:13
58,56:8
58,59:10
58,61:8
58,62:3
58,63:5
58,64:13
58,65:13
58,66:13
58,67:13
58,68:5
58,69:8
58,70:10
59,1:5
59,2:5
59,3:5
59,4:5
59,5:5
59,6:10
59,7:5
59,8:10
59,9:5
59,10:10
59,11:10
59,12:10
59,20:10
59,23:1
59,24:5
59,25:1
59,26:13
59,27:13
59,28:13
59,29:13
59,30:5
59,31:1
59,32:1
59,33:1
59,34:13
59,35:13
59,36:5
59,37:5
59,38:5
59,39:18
59,40:18
59,41:10
59,42:18
59,43:3
59,44:13
59,45:13
59,46:5
59,47:3
59,48:5
59,49:18
59,50:3
59,51:13
59,52:13
59,53:18
59,54:3
59,55:3
59,56:18
59,60:18
59,61:18
59,62:13
59,63:5
59,64:3
59,65:3
59,66:3
59,67:3
59,68:5
59,69:18
60,36:13
60,37:13
60,38:13
60,41:28
60,43:21
60,44:5
60,45:5
60,46:13
60,47:21
60,48:13
60,50:21
60,51:5
60,52:5
60,54:21
60,55:21
60,62:5
60,63:13
60,64:21
60,65:21
60,66:21
60,67:21
60,68:13
60,70:18
61,36:13
61,37:13
61,38:13
61,41:28
61,43:21
61,44:5
61,45:5
61,46:13
61,47:21
61,48:13
61,50:21
61,51:5
61,52:5
61,54:21
61,55:21
61,57:8
61,58:8
61,59:18
61,62:5
61,63:13
61,64:21
61,65:21
61,66:21
61,67:21
61,68:13
61,70:18
62,36:8
62,37:8
62,38:8
62,39:5
62,40:5
62,41:23
62,42:5
62,43:16
62,46:8
62,47:16
62,48:8
62,49:5
62,50:16
62,53:5
62,54:16
62,55:16
62,56:5
62,57:3
62,58:3
62,59:13
62,60:5
62,61:5
62,63:8
62,68:8
62,69:5
62,70:13
63,39:13
63,40:13
63,41:15
63,42:13
63,43:8
63,44:8
63,45:8
63,47:8
63,49:13
63,50:8
63,51:8
63,52:8
63,53:13
63,54:8
63,55:8
63,56:13
63,57:5
63,58:5
63,59:5
63,60:13
63,61:13
63,64:8
63,69:13
63,70:5
64,36:8
64,37:8
64,38:8
64,39:21
64,40:21
64,41:7
64,42:21
64,44:16
64,45:16
64,46:8
64,48:8
64,49:21
64,51:16
64,52:16
64,53:21
64,56:21
64,57:13
64,58:13
64,59:3
64,60:21
64,61:21
64,68:8
64,69:21
64,70:3
65,36:8
65,37:8
65,38:8
65,39:21
65,40:21
65,41:7
65,42:21
65,44:16
65,45:16
65,46:8
65,48:8
65,49:21
65,51:16
65,52:16
65,53:21
65,56:21
65,57:13
65,58:13
65,59:3
65,60:21
65,68:8
65,69:21
65,70:3
66,36:8
66,37:8
66,38:8
66,39:21
66,40:21
66,41:7
66,42:21
66,44:16
66,45:16
66,46:8
66,48:8
66,49:21
66,51:16
66,52:16
66,53:21
66,56:21
66,57:13
66,58:13
66,59:3
66,60:21
66,61:21
66,68:8
66,69:21
66,70:3
67,36:8
67,37:8
67,38:8
67,39:21
67,40:21
67,41:7
67,42:21
67,44:16
67,45:16
67,46:8
67,48:8
67,49:21
67,51:16
67,52:16
67,53:21
67,56:21
67,57:13
67,58:13
67,59:3
67,60:21
67,61:21
67,68:8
67,69:21
67,70:3
68,6:15
68,8:15
68,10:15
68,11:5
68,12:5
68,13:5
68,14:5
68,16:15
68,17:5
68,18:5
68,19:5
68,20:5
68,21:5
68,22:5
68,23:4
68,25:4
68,26:8
68,27:8
68,28:8
68,29:8
68,31:4
68,32:4
68,33:4
68,34:8
68,35:8
68,39:13
68,40:13
68,41:15
68,42:13
68,43:8
68,44:8
68,45:8
68,47:8
68,49:13
68,50:8
68,51:8
68,52:8
68,53:13
68,54:8
68,55:8
68,56:13
68,57:5
68,58:5
68,59:5
68,60:13
68,61:13
68,62:8
68,64:8
68,65:8
68,66:8
68,67:8
68,69:13
68,70:5
69,2:13
69,3:13
69,4:13
69,5:13
69,6:28
69,7:13
69,8:28
69,9:13
69,10:28
69,11:8
69,12:8
69,13:18
69,14:18
69,15:13
69,16:28
69,17:8
69,18:8
69,19:8
69,20:8
69,21:18
69,22:18
69,23:17
69,24:13
69,25:17
69,26:5
69,27:5
69,28:5
69,29:5
69,30:13
69,31:17
69,32:17
69,33:17
69,34:5
69,35:5
69,36:13
69,37:13
69,38:13
69,41:28
69,43:21
69,44:5
69,45:5
69,46:13
69,47:21
69,48:13
69,50:21
69,51:5
69,52:5
69,54:21
69,55:21
69,57:8
69,58:8
69,59:18
69,62:5
69,63:13
69,64:21
69,65:21
69,66:21
69,67:21
69,68:13
69,70:18
70,2:5
70,3:5
70,4:5
70,5:5
70,6:10
70,7:5
70,8:10
70,9:5
70,10:10
70,11:10
70,12:10
70,15:5
70,16:10
70,17:10
70,18:10
70,19:10
70,20:10
70,23:1
70,24:5
70,25:1
70,26:13
70,27:13
70,28:13
70,29:13
70,30:5
70,31:1
70,32:1
70,33:1
70,34:13
70,35:13
70,36:5
70,37:5
70,38:5
70,39:18
70,40:18
70,41:10
70,42:18
70,43:3
70,44:13
70,45:13
70,46:5
70,47:3
70,48:5
70,49:18
70,50:3
70,51:13
70,52:13
70,53:18
70,54:3
70,55:3
70,56:18
70,57:10
70,58:10
70,60:18
70,61:18
70,62:13
70,63:5
70,64:3
70,65:3
70,66:3
70,67:3
70,68:5
70,69:18

<setup times backward>
1,11:5
1,17:5
1,18:5
1,19:5
1,20:5
1,57:5
1,58:5
2,11:5
2,17:5
2,18:5
2,19:5
2,20:5
2,57:5
2,58:5
2,69:13
3,11:5
3,17:5
3,18:5
3,19:5
3,20:5
3,57:5
3,58:5
3,69:13
4,11:5
4,17:5
4,18:5
4,19:5
4,20:5
4,57:5
4,58:5
4,69:13
5,11:5
5,17:5
5,18:5
5,19:5
5,20:5
5,57:5
5,58:5
5,69:13
6,1:15
6,2:15
6,3:15
6,4:15
6,5:15
6,7:15
6,9:15
6,11:20
6,15:15
6,17:20
6,18:20
6,19:20
6,20:20
6,21:10
6,22:10
6,24:15
6,30:15
6,57:20
6,58:20
6,59:10
6,68:15
6,69:28
6,70:10
7,11:5
7,17:5
7,18:5
7,19:5
7,20:5
7,57:5
7,58:5
7,69:13
8,1:15
8,2:15
8,3:15
8,4:15
8,5:15
8,7:15
8,9:15
8,11:20
8,15:15
8,17:20
8,18:20
8,19:20
8,20:20
8,21:10
8,22:10
8,24:15
8,30:15
8,57:20
8,58:20
8,59:10
8,68:15
8,69:28
8,70:10
9,17:5
9,18:5
9,19:5
9,20:5
9,57:5
9,58:5
9,69:13
10,1:15
10,2:15
10,3:15
10,4:15
10,5:15
10,7:15
10,9:15
10,15:15
10,17:20
10,18:20
10,19:20
10,20:20
10,21:10
10,22:10
10,24:15
10,30:15
10,57:20
10,58:20
10,59:10
10,68:15
10,69:28
10,70:10
11,69:8
12,69:8
13,1:5
13,2:5
13,3:5
13,4:5
13,5:5
13,7:5
13,9:5
13,11:10
13,12:10
13,15:5
13,17:10
13,18:10
13,19:10
13,20:10
13,24:5
13,30:5
13,57:10
13,58:10
13,68:5
13,69:18
14,1:5
14,2:5
14,3:5
14,4:5
14,5:5
14,7:5
14,9:5
14,11:10
14,12:10
14,15:5
14,17:10
14,18:10
14,19:10
14,20:10
14,24:5
14,30:5
14,57:10
14,58:10
14,68:5
14,69:18
15,11:5
15,12:5
15,69:13
16,1:15
16,2:15
16,3:15
16,4:15
16,5:15
16,7:15
16,9:15
16,11:20
16,12:20
16,13:10
16,14:10
16,15:15
16,24:15
16,30:15
16,68:15
16,69:28
16,70:10
17,69:8
18,69:8
19,69:8
20,69:8
21,1:5
21,2:5
21,3:5
21,4:5
21,5:5
21,7:5
21,9:5
21,11:10
21,12:10
21,15:5
21,17:10
21,18:10
21,19:10
21,20:10
21,24:5
21,30:5
21,57:10
21,58:10
21,68:5
21,69:18
22,1:5
22,2:5
22,3:5
22,4:5
22,5:5
22,7:5
22,9:5
22,11:10
22,12:10
22,15:5
22,17:10
22,18:10
22,19:10
22,20:10
22,24:5
22,30:5
22,57:10
22,58:10
22,68:5
22,69:18
23,1:4
23,2:4
23,3:4
23,4:4
23,5:4
23,7:4
23,9:4
23,11:9
23,12:9
23,15:4
23,17:9
23,18:9
23,19:9
23,20:9
23,24:4
23,30:4
23,57:9
23,58:9
23,68:4
23,69:17
24,11:5
24,12:5
24,17:5
24,18:5
24,19:5
24,20:5
24,34:8
24,57:5
24,58:5
24,69:13
25,1:4
25,2:4
25,3:4
25,4:4
25,5:4
25,7:4
25,9:4
25,11:9
25,12:9
25,15:4
25,17:9
25,18:9
25,19:9
25,20:9
25,24:4
25,30:4
25,34:12
25,57:9
25,58:9
25,68:4
25,69:17
26,69:5
27,69:5
28,69:5
29,69:5
30,11:5
30,12:5
30,17:5
30,18:5
30,19:5
30,20:5
30,26:8
30,27:8
30,28:8
30,29:8
30,34:8
30,57:5
30,58:5
30,69:13
31,1:4
31,2:4
31,3:4
31,4:4
31,5:4
31,7:4
31,9:4
31,11:9
31,12:9
31,15:4
31,17:9
31,18:9
31,19:9
31,20:9
31,24:4
31,26:12
31,27:12
31,28:12
31,29:12
31,30:4
31,34:12
31,57:9
31,58:9
31,68:4
31,69:17
32,1:4
32,2:4
32,3:4
32,4:4
32,5:4
32,7:4
32,9:4
32,11:9
32,12:9
32,15:4
32,17:9
32,18:9
32,19:9
32,20:9
32,24:4
32,26:12
32,27:12
32,28:12
32,29:12
32,30:4
32,34:12
32,57:9
32,58:9
32,68:4
32,69:17
33,1:4
33,2:4
33,3:4
33,4:4
33,5:4
33,7:4
33,9:4
33,11:9
33,12:9
33,15:4
33,17:9
33,18:9
33,19:9
33,20:9
33,24:4
33,26:12
33,27:12
33,28:12
33,29:12
33,30:4
33,57:9
33,58:9
33,68:4
33,69:17
34,69:5
35,69:5
36,11:5
36,12:5
36,17:5
36,18:5
36,19:5
36,20:5
36,26:8
36,27:8
36,28:8
36,29:8
36,34:8
36,35:8
36,44:8
36,45:8
36,49:13
36,51:8
36,52:8
36,53:13
36,56:13
36,57:5
36,58:5
36,60:13
36,61:13
36,62:8
36,69:13
37,11:5
37,12:5
37,17:5
37,18:5
37,19:5
37,20:5
37,26:8
37,27:8
37,28:8
37,29:8
37,34:8
37,35:8
37,44:8
37,45:8
37,49:13
37,51:8
37,52:8
37,53:13
37,56:13
37,57:5
37,58:5
37,60:13
37,61:13
37,62:8
37,69:13
38,11:5
38,12:5
38,17:5
38,18:5
38,19:5
38,20:5
38,26:8
38,27:8
38,28:8
38,29:8
38,34:8
38,35:8
38,44:8
38,45:8
38,49:13
38,51:8
38,52:8
38,53:13
38,56:13
38,57:5
38,58:5
38,60:13
38,61:13
38,62:8
38,69:13
41,1:15
41,2:15
41,3:15
41,4:15
41,5:15
41,7:15
41,9:15
41,11:20
41,12:20
41,13:10
41,14:10
41,15:15
41,17:20
41,18:20
41,19:20
41,20:20
41,21:10
41,22:10
41,23:11
41,24:15
41,25:11
41,26:23
41,27:23
41,28:23
41,29:23
41,30:15
41,31:11
41,32:11
41,33:11
41,34:23
41,35:23
41,36:15
41,37:15
41,38:15
41,39:28
41,40:28
41,44:23
41,45:23
41,46:15
41,47:7
41,48:15
41,49:28
41,51:23
41,52:23
41,53:28
41,54:7
41,55:7
41,56:28
41,57:20
41,58:20
41,59:10
41,60:28
41,61:28
41,62:23
41,63:15
41,64:7
41,65:7
41,66:7
41,67:7
41,68:15
41,69:28
41,70:10
43,1:8
43,2:8
43,3:8
43,4:8
43,5:8
43,7:8
43,9:8
43,11:13
43,12:13
43,13:3
43,14:3
43,15:8
43,17:13
43,18:13
43,19:13
43,20:13
43,21:3
43,22:3
43,23:4
43,24:8
43,25:4
43,26:16
43,27:16
43,28:16
43,29:16
43,30:8
43,31:4
43,32:4
43,33:4
43,34:16
43,35:16
43,36:8
43,37:8
43,38:8
43,39:21
43,40:21
43,42:21
43,44:16
43,45:16
43,46:8
43,48:8
43,49:21
43,51:16
43,52:16
43,53:21
43,56:21
43,57:13
43,58:13
43,59:3
43,60:21
43,61:21
43,62:16
43,63:8
43,68:8
43,69:21
43,70:3
44,39:5
44,40:5
44,42:5
44,49:5
44,53:5
44,56:5
44,60:5
44,61:5
44,69:5
45,39:5
45,40:5
45,42:5
45,49:5
45,53:5
45,56:5
45,60:5
45,61:5
45,69:5
46,11:5
46,12:5
46,17:5
46,18:5
46,19:5
46,20:5
46,26:8
46,27:8
46,28:8
46,29:8
46,34:8
46,35:8
46,39:13
46,40:13
46,42:13
46,44:8
46,45:8
46,49:13
46,51:8
46,52:8
46,53:13
46,56:13
46,57:5
46,58:5
46,60:13
46,61:13
46,62:8
46,69:13
47,1:8
47,2:8
47,3:8
47,4:8
47,5:8
47,7:8
47,9:8
47,11:13
47,12:13
47,13:3
47,14:3
47,15:8
47,17:13
47,18:13
47,19:13
47,20:13
47,21:3
47,22:3
47,23:4
47,24:8
47,25:4
47,26:16
47,27:16
47,28:16
47,29:16
47,30:8
47,31:4
47,32:4
47,33:4
47,34:16
47,35:16
47,36:8
47,37:8
47,38:8
47,39:21
47,40:21
47,42:21
47,44:16
47,45:16
47,46:8
47,48:8
47,49:21
47,51:16
47,52:16
47,53:21
47,56:21
47,57:13
47,58:13
47,59:3
47,60:21
47,61:21
47,62:16
47,63:8
47,68:8
47,69:21
47,70:3
48,11:5
48,12:5
48,17:5
48,18:5
48,19:5
48,20:5
48,26:8
48,27:8
48,28:8
48,29:8
48,34:8
48,35:8
48,39:13
48,40:13
48,42:13
48,44:8
48,45:8
48,51:8
48,52:8
48,53:13
48,56:13
48,57:5
48,58:5
48,60:13
48,61:13
48,62:8
48,69:13
50,1:8
50,2:8
50,3:8
50,4:8
50,5:8
50,7:8
50,9:8
50,11:13
50,12:13
50,13:3
50,14:3
50,15:8
50,17:13
50,18:13
50,19:13
50,20:13
50,21:3
50,22:3
50,23:4
50,24:8
50,25:4
50,26:16
50,27:16
50,28:16
50,29:16
50,30:8
50,31:4
50,32:4
50,33:4
50,34:16
50,35:16
50,36:8
50,37:8
50,38:8
50,39:21
50,40:21
50,42:21
50,44:16
50,45:16
50,46:8
50,48:8
50,49:21
50,51:16
50,52:16
50,53:21
50,56:21
50,57:13
50,58:13
50,59:3
50,60:21
50,61:21
50,62:16
50,63:8
50,68:8
50,69:21
50,70:3
51,39:5
51,40:5
51,42:5
51,49:5
51,53:5
51,56:5
51,60:5
51,61:5
51,69:5
52,39:5
52,40:5
52,42:5
52,49:5
52,53:5
52,56:5
52,60:5
52,61:5
52,69:5
54,1:8
54,2:8
54,3:8
54,4:8
54,5:8
54,7:8
54,9:8
54,11:13
54,12:13
54,13:3
54,14:3
54,15:8
54,17:13
54,18:13
54,19:13
54,20:13
54,21:3
54,22:3
54,23:4
54,24:8
54,25:4
54,26:16
54,27:16
54,28:16
54,29:16
54,30:8
54,31:4
54,32:4
54,33:4
54,34:16
54,35:16
54,36:8
54,37:8
54,38:8
54,39:21
54,40:21
54,42:21
54,44:16
54,45:16
54,46:8
54,48:8
54,49:21
54,51:16
54,52:16
54,53:21
54,56:21
54,57:13
54,58:13
54,59:3
54,60:21
54,61:21
54,62:16
54,63:8
54,68:8
54,69:21
54,70:3
55,1:8
55,2:8
55,3:8
55,4:8
55,5:8
55,7:8
55,9:8
55,11:13
55,12:13
55,13:3
55,14:3
55,15:8
55,17:13
55,18:13
55,19:13
55,20:13
55,21:3
55,22:3
55,23:4
55,24:8
55,25:4
55,26:16
55,27:16
55,28:16
55,29:16
55,30:8
55,31:4
55,32:4
55,33:4
55,34:16
55,35:16
55,36:8
55,37:8
55,38:8
55,39:21
55,40:21
55,42:21
55,44:16
55,45:16
55,46:8
55,48:8
55,49:21
55,51:16
55,52:16
55,53:21
55,56:21
55,57:13
55,58:13
55,59:3
55,60:21
55,61:21
55,62:16
55,63:8
55,68:8
55,69:21
55,70:3
57,26:3
57,27:3
57,28:3
57,29:3
57,34:3
57,35:3
57,39:8
57,40:8
57,42:8
57,44:3
57,45:3
57,49:8
57,51:3
57,52:3
57,53:8
57,56:8
57,61:8
57,62:3
57,69:8
58,26:3
58,27:3
58,28:3
58,29:3
58,34:3
58,35:3
58,39:8
58,40:8
58,42:8
58,44:3
58,45:3
58,49:8
58,51:3
58,52:3
58,53:8
58,56:8
58,61:8
58,62:3
58,69:8
59,1:5
59,2:5
59,3:5
59,4:5
59,5:5
59,7:5
59,9:5
59,11:10
59,12:10
59,15:5
59,17:10
59,18:10
59,19:10
59,20:10
59,23:1
59,24:5
59,25:1
59,26:13
59,27:13
59,28:13
59,29:13
59,30:5
59,31:1
59,32:1
59,33:1
59,34:13
59,35:13
59,36:5
59,37:5
59,38:5
59,39:18
59,40:18
59,42:18
59,44:13
59,45:13
59,46:5
59,48:5
59,49:18
59,51:13
59,52:13
59,53:18
59,56:18
59,57:10
59,58:10
59,61:18
59,62:13
59,63:5
59,68:5
59,69:18
62,39:5
62,40:5
62,42:5
62,49:5
62,53:5
62,56:5
62,60:5
62,61:5
62,69:5
63,11:5
63,12:5
63,17:5
63,18:5
63,19:5
63,20:5
63,26:8
63,27:8
63,28:8
63,29:8
63,34:8
63,35:8
63,39:13
63,40:13
63,42:13
63,44:8
63,45:8
63,49:13
63,51:8
63,52:8
63,53:13
63,56:13
63,57:5
63,58:5
63,60:13
63,61:13
63,62:8
63,69:13
64,1:8
64,2:8
64,3:8
64,4:8
64,5:8
64,7:8
64,9:8
64,11:13
64,12:13
64,13:3
64,14:3
64,15:8
64,17:13
64,18:13
64,19:13
64,20:13
64,21:3
64,22:3
64,23:4
64,24:8
64,25:4
64,26:16
64,27:16
64,28:16
64,29:16
64,30:8
64,31:4
64,32:4
64,33:4
64,34:16
64,35:16
64,36:8
64,37:8
64,38:8
64,39:21
64,40:21
64,42:21
64,44:16
64,45:16
64,46:8
64,48:8
64,49:21
64,51:16
64,52:16
64,53:21
64,56:21
64,57:13
64,58:13
64,59:3
64,60:21
64,61:21
64,62:16
64,63:8
64,68:8
64,69:21
64,70:3
65,1:8
65,2:8
65,3:8
65,4:8
65,5:8
65,7:8
65,9:8
65,11:13
65,12:13
65,13:3
65,14:3
65,15:8
65,17:13
65,18:13
65,19:13
65,20:13
65,21:3
65,22:3
65,23:4
65,24:8
65,25:4
65,26:16
65,27:16
65,28:16
65,29:16
65,30:8
65,31:4
65,32:4
65,33:4
65,34:16
65,35:16
65,36:8
65,37:8
65,38:8
65,39:21
65,40:21
65,42:21
65,44:16
65,45:16
65,46:8
65,48:8
65,49:21
65,51:16
65,52:16
65,53:21
65,56:21
65,57:13
65,58:13
65,59:3
65,60:21
65,61:21
65,62:16
65,63:8
65,68:8
65,69:21
65,70:3
66,1:8
66,2:8
66,3:8
66,4:8
66,5:8
66,7:8
66,9:8
66,11:13
66,12:13
66,13:3
66,14:3
66,15:8
66,17:13
66,18:13
66,19:13
66,20:13
66,21:3
66,22:3
66,23:4
66,24:8
66,25:4
66,26:16
66,27:16
66,28:16
66,29:16
66,30:8
66,31:4
66,32:4
66,33:4
66,34:16
66,35:16
66,36:8
66,37:8
66,38:8
66,39:21
66,40:21
66,42:21
66,44:16
66,45:16
66,46:8
66,48:8
66,49:21
66,51:16
66,52:16
66,53:21
66,56:21
66,57:13
66,58:13
66,59:3
66,60:21
66,61:21
66,62:16
66,63:8
66,68:8
66,69:21
66,70:3
67,1:8
67,2:8
67,3:8
67,4:8
67,5:8
67,7:8
67,9:8
67,11:13
67,12:13
67,13:3
67,14:3
67,15:8
67,17:13
67,18:13
67,19:13
67,20:13
67,21:3
67,22:3
67,23:4
67,24:8
67,25:4
67,26:16
67,27:16
67,28:16
67,29:16
67,30:8
67,31:4
67,32:4
67,33:4
67,34:16
67,35:16
67,36:8
67,37:8
67,38:8
67,39:21
67,40:21
67,42:21
67,44:16
67,45:16
67,46:8
67,48:8
67,49:21
67,51:16
67,52:16
67,53:21
67,56:21
67,57:13
67,58:13
67,59:3
67,60:21
67,61:21
67,62:16
67,63:8
67,68:8
67,69:21
67,70:3
68,11:5
68,12:5
68,17:5
68,18:5
68,19:5
68,20:5
68,26:8
68,27:8
68,28:8
68,29:8
68,34:8
68,35:8
68,39:13
68,40:13
68,42:13
68,44:8
68,45:8
68,49:13
68,51:8
68,52:8
68,53:13
68,56:13
68,57:5
68,58:5
68,60:13
68,61:13
68,62:8
68,69:13
70,1:5
70,2:5
70,3:5
70,4:5
70,5:5
70,7:5
70,9:5
70,11:10
70,12:10
70,15:5
70,17:10
70,18:10
70,19:10
70,20:10
70,23:1
70,24:5
70,25:1
70,26:13
70,27:13
70,28:13
70,29:13
70,30:5
70,31:1
70,32:1
70,33:1
70,34:13
70,35:13
70,36:5
70,37:5
70,38:5
70,39:18
70,40:18
70,42:18
70,44:13
70,45:13
70,46:5
70,48:5
70,49:18
70,51:13
70,52:13
70,53:18
70,56:18
70,57:10
70,58:10
70,60:18
70,61:18
70,62:13
70,63:5
70,68:5
70,69:18

<end>

<optimal SALBP-1 value>
9


<rand seed>
467321153

<Lower Bounds>
Lm1=9
Lms1=9
Lm2=0
Lm3=2
Lm4=9
Best=9

<Optimal Stations (Iterations: 10)>
10
